NAME : 10_3_3_3_(09).dat
COMMENT : Henke, Speranza, Wäscher, 2015
TYPE : MCVRP
DIMENSION : 11
EDGE_WEIGHT_TYPE : DISTANCE_MATRIX
CAPACITY : 1000
VEHICLES : 2
PRODUCT TYPES : 3
COMPARTMENTS : 3
NODE_COORD_SECTION
1 50 50
2 16.09 4.52
3 27.34 16.96
4 58.03 93.16
5 73.69 76.76
6 39.34 21.16
7 9.93 26.99
8 75.99 30.82
9 40.7 55.13
10 41.83 9.06
11 5.19 19.99
DEMAND_SECTION
1 0 0 0
2 77 46 30
3 53 43 23
4 126 59 28
5 59 14 29
6 5 33 12
7 62 59 37
8 67 39 36
9 73 29 12
10 72 31 6
11 47 33 42
DEPOT_SECTION
1
EOF